Welcome to the CBC MILP Solver 
Version: 2.9.8 
Build Date: Apr 18 2016 

command line - /opt/maxeler/maxcompiler/bin/cbc WavePropagationKernel_schedule_nx.mps.gz -threads 2 -solve -printi csv -solu WavePropagationKernel_schedule_nx.csv (default strategy 1)
At line 1 NAME           CxSchedule
At line 2 ROWS
At line 249 COLUMNS
At line 610 RHS
At line 734 BOUNDS
At line 915 ENDATA
Problem CxSchedule has 245 rows, 180 columns and 609 elements
Coin0008I CxSchedule read with 0 errors
threads was changed from 0 to 2
Continuous objective value is 352 - 0.00 seconds
Cgl0003I 0 fixed, 178 tightened bounds, 0 strengthened rows, 0 substitutions
Cgl0003I 0 fixed, 1 tightened bounds, 0 strengthened rows, 0 substitutions
Cgl0004I processed model has 245 rows, 177 columns (177 integer (0 of which binary)) and 609 elements
Cutoff increment increased from 1e-05 to 0.9999
Cbc0012I Integer solution of 352 found by DiveCoefficient after 0 iterations and 0 nodes (0.01 seconds)
Cbc0030I Thread 0 used 0 times,  waiting to start 0.00077915192, 0 cpu time, 0 locks, 0 locked, 0 waiting for locks
Cbc0030I Thread 1 used 0 times,  waiting to start 0.0007648468, 0 cpu time, 0 locks, 0 locked, 0 waiting for locks
Cbc0030I Main thread 0 waiting for threads,  1 locks, 3.5762787e-06 locked, 2.3841858e-07 waiting for locks
Cbc0001I Search completed - best objective 352, took 0 iterations and 0 nodes (0.01 seconds)
Cbc0035I Maximum depth 0, 0 variables fixed on reduced cost
Cuts at root node changed objective from 352 to 352
Probing was tried 0 times and created 0 cuts of which 0 were active after adding rounds of cuts (0.000 seconds)
Gomory was tried 0 times and created 0 cuts of which 0 were active after adding rounds of cuts (0.000 seconds)
Knapsack was tried 0 times and created 0 cuts of which 0 were active after adding rounds of cuts (0.000 seconds)
Clique was tried 0 times and created 0 cuts of which 0 were active after adding rounds of cuts (0.000 seconds)
MixedIntegerRounding2 was tried 0 times and created 0 cuts of which 0 were active after adding rounds of cuts (0.000 seconds)
FlowCover was tried 0 times and created 0 cuts of which 0 were active after adding rounds of cuts (0.000 seconds)
TwoMirCuts was tried 0 times and created 0 cuts of which 0 were active after adding rounds of cuts (0.000 seconds)

Result - Optimal solution found

Objective value:                352.00000000
Enumerated nodes:               0
Total iterations:               0
Time (CPU seconds):             0.01
Time (Wallclock seconds):       0.02

Option for printingOptions changed from normal to csv
Total time (CPU seconds):       0.01   (Wallclock seconds):       0.02

